12 16 9 10
6 9 14 16 13 17 4 9 10 14 20 19 4 17 18 9 
1.16 7.41 2.97 0.59 1.91 7.26 3.08 6.29 7.51 2.94 1.21 6.32 6.08 6.85 5.32 1.77 
7.92 1.14 5.38 5.11 3.4 1.56 3.82 7.35 6.32 0.61 4.11 2.54 5.32 1.29 2.01 3.91 
0.89 1.05 3.69 6.12 4.4 0.34 5.76 6.26 7.93 4.83 6.09 6.63 5.73 4.32 1.08 3.89 
6.98 0.81 0.77 5.68 1.6 3.48 0.65 4.5 0.96 3.9 7.25 5.02 0.51 4.46 5.9 7.39 
1.16 3.44 5.37 6.35 0.22 5.95 4.67 7.73 0.9 4.47 0.79 6.4 0.63 2.86 4.94 3.95 
1.63 2.19 6.42 1.85 2.01 7.19 4.46 4.99 0.58 0.24 3.49 6.7 3.23 0.82 1.89 7.42 
4.84 7.95 1.28 4.34 0.85 2.63 5.14 0.17 7.92 1.15 0.92 1.59 7.48 6.86 3.1 0.75 
2.95 0.32 5.36 2.96 7.13 5.05 7.87 5.01 2.68 7.98 5.38 5.69 4.85 0.47 1.37 6.53 
6.96 5.85 1.01 0.24 7.28 7.53 6.38 4.04 3.41 0.94 3.96 2.27 2.17 7.56 4.53 2.08 
4 4 4 4 4 4 4 4 4 4 4 4 4 4 4 4 
0.97 5.4 1.12 0.05 0.84 6.19 1.38 5.19 7.97 1.78 3.1 5.12 5.07 5.91 3.21 1.07 
4.48 1.52 6.29 0.88 3.44 4.81 1.18 6.96 5.45 4.03 4.22 5 0.77 7.38 0.74 1.98 
1 1 1 1 1 1 1 1 1 1 1 1 1 1 1 1 
1 1 1 1 1 1 1 1 1 1 1 1 1 1 1 1 
1 1 1 1 1 1 1 1 1 1 1 1 1 1 1 1 
1 1 1 1 1 1 1 1 1 1 1 1 1 1 1 1 
1 1 1 1 1 1 1 1 1 1 1 1 1 1 1 1 
1 1 1 1 1 1 1 1 1 1 1 1 1 1 1 1 
1 1 1 1 1 1 1 1 1 1 1 1 1 1 1 1 
1 1 1 1 1 1 1 1 1 1 1 1 1 1 1 1 
1 1 1 1 1 1 1 1 1 1 1 1 1 1 1 1 
1 1 1 1 1 1 1 1 1 1 1 1 1 1 1 1 
1 1 1 1 1 1 1 1 1 1 1 1 1 1 1 1 
1 1 1 1 1 1 1 1 1 1 1 1 1 1 1 1 
0.01 0.01 0.01 0.01 0.01 0.01 0.01 0.01 0.01 0.01 0.01 0.01 0.01 0.01 0.01 0.01 
0.02 0.02 0.02 0.02 0.02 0.02 0.02 0.02 0.02 0.02 0.02 0.02 0.02 0.02 0.02 0.02 
0.03 0.03 0.03 0.03 0.03 0.03 0.03 0.03 0.03 0.03 0.03 0.03 0.03 0.03 0.03 0.03 
0.04 0.04 0.04 0.04 0.04 0.04 0.04 0.04 0.04 0.04 0.04 0.04 0.04 0.04 0.04 0.04 
0.05 0.05 0.05 0.05 0.05 0.05 0.05 0.05 0.05 0.05 0.05 0.05 0.05 0.05 0.05 0.05 
0.06 0.06 0.06 0.06 0.06 0.06 0.06 0.06 0.06 0.06 0.06 0.06 0.06 0.06 0.06 0.06 
0.07 0.07 0.07 0.07 0.07 0.07 0.07 0.07 0.07 0.07 0.07 0.07 0.07 0.07 0.07 0.07 
0.08 0.08 0.08 0.08 0.08 0.08 0.08 0.08 0.08 0.08 0.08 0.08 0.08 0.08 0.08 0.08 
0.09 0.09 0.09 0.09 0.09 0.09 0.09 0.09 0.09 0.09 0.09 0.09 0.09 0.09 0.09 0.09 
0.1 0.1 0.1 0.1 0.1 0.1 0.1 0.1 0.1 0.1 0.1 0.1 0.1 0.1 0.1 0.1 
0.5 0.5 0.5 0.5 0.5 0.5 0.5 0.5 0.5 0.5 0.5 0.5 0.5 0.5 0.5 0.5 
1 1 1 1 1 1 1 1 1 1 1 1 1 1 1 1 
